n = 39;
rows = 84;
supports = [|
  {1},2..5,
 |{1},36..39,
 |{2},{1},
 |{2},3..6,
 |{2},37..39,
 |{3},1..2,
 |{3},4..7,
 |{3},38..39,
 |{4},1..3,
 |{4},5..8,
 |{4},{39},
 |{5},1..4,
 |{5},6..9,
 |{6},2..5,
 |{6},7..10,
 |{7},3..6,
 |{7},8..11,
 |{8},4..7,
 |{8},9..12,
 |{9},5..8,
 |{9},10..13,
 |{10},6..9,
 |{10},11..14,
 |{11},7..10,
 |{11},12..15,
 |{12},8..11,
 |{12},13..16,
 |{13},9..12,
 |{13},14..17,
 |{14},10..13,
 |{14},15..18,
 |{15},11..14,
 |{15},16..19,
 |{16},12..15,
 |{16},17..20,
 |{17},13..16,
 |{17},18..21,
 |{18},14..17,
 |{18},19..22,
 |{19},15..18,
 |{19},20..23,
 |{20},16..19,
 |{20},21..24,
 |{21},17..20,
 |{21},22..25,
 |{22},18..21,
 |{22},23..26,
 |{23},19..22,
 |{23},24..27,
 |{24},20..23,
 |{24},25..28,
 |{25},21..24,
 |{25},26..29,
 |{26},22..25,
 |{26},27..30,
 |{27},23..26,
 |{27},28..31,
 |{28},24..27,
 |{28},29..32,
 |{29},25..28,
 |{29},30..33,
 |{30},26..29,
 |{30},31..34,
 |{31},27..30,
 |{31},32..35,
 |{32},28..31,
 |{32},33..36,
 |{33},29..32,
 |{33},34..37,
 |{34},30..33,
 |{34},35..38,
 |{35},31..34,
 |{35},36..39,
 |{36},32..35,
 |{36},37..39,
 |{36},{1},
 |{37},33..36,
 |{37},38..39,
 |{37},1..2,
 |{38},34..37,
 |{38},{39},
 |{38},1..3,
 |{39},35..38,
 |{39},1..4 |];

t = 46;

indexes = [|
    0,5,
  | 0,29,
  | 1,8,
  | 1,35,
  | 2,23,
  | 2,25,
  | 2,35,
  | 3,21,
  | 4,29,
  | 5,11,
  | 6,25,
  | 7,14,
  | 7,21,
  | 7,22,
  | 8,24,
  | 8,32,
  | 9,12,
  | 10,34,
  | 10,38,
  | 11,38,
  | 12,17,
  | 12,29,
  | 13,32,
  | 13,35,
  | 14,33,
  | 15,22,
  | 15,26,
  | 15,27,
  | 16,31,
  | 17,18,
  | 17,19,
  | 17,31,
  | 18,31,
  | 19,36,
  | 20,32,
  | 21,33,
  | 22,30,
  | 26,27,
  | 26,36,
  | 27,29,
  | 28,34,
  | 28,38,
  | 30,35,
  | 33,34,
  | 34,37,
  | 35,36 |];

